NAME          
ROWS
 N  OBJ
 L  c6
 L  c7
 L  c8
 L  c9
 L  c10
 G  c1
 G  c2
 G  c3
 G  c4
 G  c5
COLUMNS
    ss[1]     c1        1
    ss[1]     OBJ       1000
    ss[2]     c2        1
    ss[2]     OBJ       1000
    ss[3]     c3        1
    ss[3]     OBJ       1000
    ss[4]     c4        1
    ss[4]     OBJ       1000
    ss[5]     c5        1
    ss[5]     OBJ       1000
    s[1]      c6        1
    s[1]      OBJ       -1000
    s[2]      c7        1
    s[2]      OBJ       -1000
    s[3]      c8        1
    s[3]      OBJ       -1000
    s[4]      c9        1
    s[4]      OBJ       -1000
    s[5]      c10       1
    s[5]      OBJ       -1000
    MARKER    'MARKER'                 'INTORG'
    x[1]      c6        943
    x[1]      c7        184
    x[1]      c8        929
    x[1]      c9        97
    x[1]      c10       734
    x[1]      c1        556
    x[1]      c2        413
    x[1]      c3        907
    x[1]      c4        547
    x[1]      c5        599
    x[1]      OBJ       93
    x[2]      c6        948
    x[2]      c7        613
    x[2]      c8        402
    x[2]      c9        316
    x[2]      c10       608
    x[2]      c1        125
    x[2]      c2        794
    x[2]      c3        447
    x[2]      c4        399
    x[2]      c5        63
    x[2]      OBJ       -287
    x[3]      c6        984
    x[3]      c7        282
    x[3]      c8        218
    x[3]      c9        805
    x[3]      c10       782
    x[3]      c1        736
    x[3]      c2        494
    x[3]      c3        158
    x[3]      c4        669
    x[3]      c5        627
    x[3]      OBJ       12
    x[4]      c6        859
    x[4]      c7        608
    x[4]      c8        930
    x[4]      c9        788
    x[4]      c10       477
    x[4]      c1        557
    x[4]      c2        821
    x[4]      c3        840
    x[4]      c4        818
    x[4]      c5        495
    x[4]      OBJ       179
    x[5]      c6        801
    x[5]      c7        85
    x[5]      c8        667
    x[5]      c9        517
    x[5]      c10       393
    x[5]      c1        301
    x[5]      c2        348
    x[5]      c3        440
    x[5]      c4        623
    x[5]      c5        55
    x[5]      OBJ       -595
    x[6]      c6        768
    x[6]      c7        476
    x[6]      c8        848
    x[6]      c9        918
    x[6]      c10       720
    x[6]      c1        6
    x[6]      c2        961
    x[6]      c3        413
    x[6]      c4        164
    x[6]      c5        314
    x[6]      OBJ       -489
    x[7]      c6        229
    x[7]      c7        48
    x[7]      c8        304
    x[7]      c9        716
    x[7]      c10       867
    x[7]      c1        111
    x[7]      c2        63
    x[7]      c3        75
    x[7]      c4        859
    x[7]      c5        599
    x[7]      OBJ       -590
    x[8]      c6        497
    x[8]      c7        604
    x[8]      c8        276
    x[8]      c9        751
    x[8]      c10       993
    x[8]      c1        16
    x[8]      c2        962
    x[8]      c3        682
    x[8]      c4        960
    x[8]      c5        374
    x[8]      OBJ       211
    x[9]      c6        299
    x[9]      c7        501
    x[9]      c8        572
    x[9]      c9        716
    x[9]      c10       170
    x[9]      c1        704
    x[9]      c2        799
    x[9]      c3        936
    x[9]      c4        509
    x[9]      c5        472
    x[9]      OBJ       58
    x[10]     c6        88
    x[10]     c7        49
    x[10]     c8        693
    x[10]     c9        347
    x[10]     c10       45
    x[10]     c1        952
    x[10]     c2        242
    x[10]     c3        933
    x[10]     c4        365
    x[10]     c5        554
    x[10]     OBJ       213
    x[11]     c6        113
    x[11]     c7        4
    x[11]     c8        739
    x[11]     c9        763
    x[11]     c10       739
    x[11]     c1        408
    x[11]     c2        352
    x[11]     c3        753
    x[11]     c4        351
    x[11]     c5        946
    x[11]     OBJ       63
    x[12]     c6        685
    x[12]     c7        253
    x[12]     c8        853
    x[12]     c9        613
    x[12]     c10       650
    x[12]     c1        492
    x[12]     c2        337
    x[12]     c3        47
    x[12]     c4        949
    x[12]     c5        583
    x[12]     OBJ       6
    x[13]     c6        24
    x[13]     c7        227
    x[13]     c8        829
    x[13]     c9        202
    x[13]     c10       452
    x[13]     c1        163
    x[13]     c2        111
    x[13]     c3        488
    x[13]     c4        25
    x[13]     c5        359
    x[13]     OBJ       -472
    x[14]     c6        169
    x[14]     c7        405
    x[14]     c8        963
    x[14]     c9        816
    x[14]     c10       341
    x[14]     c1        938
    x[14]     c2        559
    x[14]     c3        649
    x[14]     c4        197
    x[14]     c5        675
    x[14]     OBJ       -395
    x[15]     c6        28
    x[15]     c7        348
    x[15]     c8        659
    x[15]     c9        62
    x[15]     c10       427
    x[15]     c1        315
    x[15]     c2        889
    x[15]     c3        475
    x[15]     c4        264
    x[15]     c5        87
    x[15]     OBJ       11
    x[16]     c6        112
    x[16]     c7        47
    x[16]     c8        570
    x[16]     c9        304
    x[16]     c10       734
    x[16]     c1        949
    x[16]     c2        595
    x[16]     c3        88
    x[16]     c4        678
    x[16]     c5        563
    x[16]     OBJ       204
    x[17]     c6        906
    x[17]     c7        277
    x[17]     c8        383
    x[17]     c9        145
    x[17]     c10       661
    x[17]     c1        670
    x[17]     c2        914
    x[17]     c3        464
    x[17]     c4        581
    x[17]     c5        150
    x[17]     OBJ       225
    x[18]     c6        639
    x[18]     c7        14
    x[18]     c8        699
    x[18]     c9        850
    x[18]     c10       802
    x[18]     c1        1000
    x[18]     c2        576
    x[18]     c3        50
    x[18]     c4        500
    x[18]     c5        661
    x[18]     OBJ       -467
    x[19]     c6        14
    x[19]     c7        91
    x[19]     c8        919
    x[19]     c9        800
    x[19]     c10       757
    x[19]     c1        457
    x[19]     c2        312
    x[19]     c3        485
    x[19]     c4        285
    x[19]     c5        58
    x[19]     OBJ       -455
    x[20]     c6        287
    x[20]     c7        638
    x[20]     c8        232
    x[20]     c9        729
    x[20]     c10       388
    x[20]     c1        816
    x[20]     c2        323
    x[20]     c3        672
    x[20]     c4        422
    x[20]     c5        523
    x[20]     OBJ       272
    x[21]     c6        619
    x[21]     c7        931
    x[21]     c8        915
    x[21]     c9        486
    x[21]     c10       760
    x[21]     c1        357
    x[21]     c2        153
    x[21]     c3        254
    x[21]     c4        802
    x[21]     c5        885
    x[21]     OBJ       -307
    x[22]     c6        446
    x[22]     c7        998
    x[22]     c8        353
    x[22]     c9        527
    x[22]     c10       794
    x[22]     c1        495
    x[22]     c2        888
    x[22]     c3        171
    x[22]     c4        200
    x[22]     c5        946
    x[22]     OBJ       -512
    x[23]     c6        956
    x[23]     c7        336
    x[23]     c8        115
    x[23]     c9        425
    x[23]     c10       696
    x[23]     c1        916
    x[23]     c2        287
    x[23]     c3        548
    x[23]     c4        287
    x[23]     c5        125
    x[23]     OBJ       -444
    x[24]     c6        665
    x[24]     c7        523
    x[24]     c8        169
    x[24]     c9        510
    x[24]     c10       879
    x[24]     c1        852
    x[24]     c2        627
    x[24]     c3        202
    x[24]     c4        968
    x[24]     c5        544
    x[24]     OBJ       65
    x[25]     c6        300
    x[25]     c7        714
    x[25]     c8        52
    x[25]     c9        906
    x[25]     c10       659
    x[25]     c1        614
    x[25]     c2        888
    x[25]     c3        227
    x[25]     c4        674
    x[25]     c5        318
    x[25]     OBJ       202
    x[26]     c6        431
    x[26]     c7        35
    x[26]     c8        481
    x[26]     c9        108
    x[26]     c10       64
    x[26]     c1        161
    x[26]     c2        634
    x[26]     c3        673
    x[26]     c4        379
    x[26]     c5        593
    x[26]     OBJ       111
    x[27]     c6        313
    x[27]     c7        260
    x[27]     c8        858
    x[27]     c9        751
    x[27]     c10       787
    x[27]     c1        60
    x[27]     c2        424
    x[27]     c3        888
    x[27]     c4        733
    x[27]     c5        647
    x[27]     OBJ       -290
    x[28]     c6        257
    x[28]     c7        327
    x[28]     c8        872
    x[28]     c9        888
    x[28]     c10       468
    x[28]     c1        382
    x[28]     c2        365
    x[28]     c3        176
    x[28]     c4        455
    x[28]     c5        299
    x[28]     OBJ       -571
    x[29]     c6        886
    x[29]     c7        877
    x[29]     c8        334
    x[29]     c9        416
    x[29]     c10       161
    x[29]     c1        373
    x[29]     c2        374
    x[29]     c3        82
    x[29]     c4        956
    x[29]     c5        47
    x[29]     OBJ       -392
    x[30]     c6        575
    x[30]     c7        145
    x[30]     c8        47
    x[30]     c9        402
    x[30]     c10       124
    x[30]     c1        570
    x[30]     c2        85
    x[30]     c3        811
    x[30]     c4        967
    x[30]     c5        898
    x[30]     OBJ       283
    x[31]     c6        948
    x[31]     c7        417
    x[31]     c8        27
    x[31]     c9        942
    x[31]     c10       89
    x[31]     c1        182
    x[31]     c2        650
    x[31]     c3        292
    x[31]     c4        829
    x[31]     c5        462
    x[31]     OBJ       -295
    x[32]     c6        851
    x[32]     c7        803
    x[32]     c8        4
    x[32]     c9        504
    x[32]     c10       42
    x[32]     c1        934
    x[32]     c2        265
    x[32]     c3        522
    x[32]     c4        154
    x[32]     c5        502
    x[32]     OBJ       45
    x[33]     c6        882
    x[33]     c7        822
    x[33]     c8        87
    x[33]     c9        385
    x[33]     c10       223
    x[33]     c1        129
    x[33]     c2        711
    x[33]     c3        717
    x[33]     c4        902
    x[33]     c5        572
    x[33]     OBJ       107
    x[34]     c6        182
    x[34]     c7        409
    x[34]     c8        87
    x[34]     c9        351
    x[34]     c10       715
    x[34]     c1        542
    x[34]     c2        204
    x[34]     c3        592
    x[34]     c4        240
    x[34]     c5        556
    x[34]     OBJ       58
    x[35]     c6        205
    x[35]     c7        34
    x[35]     c8        829
    x[35]     c9        352
    x[35]     c10       227
    x[35]     c1        767
    x[35]     c2        816
    x[35]     c3        235
    x[35]     c4        70
    x[35]     c5        361
    x[35]     OBJ       -282
    x[36]     c6        551
    x[36]     c7        875
    x[36]     c8        484
    x[36]     c9        527
    x[36]     c10       259
    x[36]     c1        964
    x[36]     c2        595
    x[36]     c3        398
    x[36]     c4        212
    x[36]     c5        385
    x[36]     OBJ       -401
    x[37]     c6        1
    x[37]     c7        1000
    x[37]     c8        426
    x[37]     c9        369
    x[37]     c10       784
    x[37]     c1        896
    x[37]     c2        111
    x[37]     c3        519
    x[37]     c4        878
    x[37]     c5        464
    x[37]     OBJ       -400
    x[38]     c6        956
    x[38]     c7        352
    x[38]     c8        824
    x[38]     c9        502
    x[38]     c10       679
    x[38]     c1        350
    x[38]     c2        707
    x[38]     c3        987
    x[38]     c4        160
    x[38]     c5        105
    x[38]     OBJ       -336
    x[39]     c6        111
    x[39]     c7        951
    x[39]     c8        401
    x[39]     c9        827
    x[39]     c10       360
    x[39]     c1        178
    x[39]     c2        774
    x[39]     c3        937
    x[39]     c4        900
    x[39]     c5        533
    x[39]     OBJ       56
    x[40]     c6        455
    x[40]     c7        246
    x[40]     c8        14
    x[40]     c9        83
    x[40]     c10       982
    x[40]     c1        557
    x[40]     c2        138
    x[40]     c3        12
    x[40]     c4        594
    x[40]     c5        83
    x[40]     OBJ       128
    x[41]     c6        186
    x[41]     c7        388
    x[41]     c8        987
    x[41]     c9        95
    x[41]     c10       392
    x[41]     c1        975
    x[41]     c2        687
    x[41]     c3        599
    x[41]     c4        582
    x[41]     c5        1
    x[41]     OBJ       -311
    x[42]     c6        76
    x[42]     c7        696
    x[42]     c8        282
    x[42]     c9        230
    x[42]     c10       732
    x[42]     c1        70
    x[42]     c2        131
    x[42]     c3        414
    x[42]     c4        365
    x[42]     c5        112
    x[42]     OBJ       -572
    x[43]     c6        325
    x[43]     c7        413
    x[43]     c8        276
    x[43]     c9        189
    x[43]     c10       677
    x[43]     c1        226
    x[43]     c2        279
    x[43]     c3        362
    x[43]     c4        49
    x[43]     c5        323
    x[43]     OBJ       -454
    x[44]     c6        247
    x[44]     c7        799
    x[44]     c8        663
    x[44]     c9        568
    x[44]     c10       138
    x[44]     c1        356
    x[44]     c2        775
    x[44]     c3        818
    x[44]     c4        368
    x[44]     c5        14
    x[44]     OBJ       -416
    x[45]     c6        767
    x[45]     c7        325
    x[45]     c8        582
    x[45]     c9        48
    x[45]     c10       439
    x[45]     c1        404
    x[45]     c2        191
    x[45]     c3        998
    x[45]     c4        156
    x[45]     c5        581
    x[45]     OBJ       -352
    x[46]     c6        382
    x[46]     c7        615
    x[46]     c8        865
    x[46]     c9        139
    x[46]     c10       32
    x[46]     c1        79
    x[46]     c2        217
    x[46]     c3        654
    x[46]     c4        68
    x[46]     c5        291
    x[46]     OBJ       -633
    x[47]     c6        924
    x[47]     c7        335
    x[47]     c8        74
    x[47]     c9        976
    x[47]     c10       685
    x[47]     c1        833
    x[47]     c2        181
    x[47]     c3        32
    x[47]     c4        99
    x[47]     c5        159
    x[47]     OBJ       -496
    x[48]     c6        481
    x[48]     c7        856
    x[48]     c8        658
    x[48]     c9        957
    x[48]     c10       779
    x[48]     c1        616
    x[48]     c2        750
    x[48]     c3        469
    x[48]     c4        554
    x[48]     c5        108
    x[48]     OBJ       1
    x[49]     c6        262
    x[49]     c7        324
    x[49]     c8        222
    x[49]     c9        312
    x[49]     c10       69
    x[49]     c1        575
    x[49]     c2        890
    x[49]     c3        618
    x[49]     c4        145
    x[49]     c5        702
    x[49]     OBJ       78
    x[50]     c6        869
    x[50]     c7        665
    x[50]     c8        9
    x[50]     c9        359
    x[50]     c10       863
    x[50]     c1        987
    x[50]     c2        776
    x[50]     c3        781
    x[50]     c4        319
    x[50]     c5        454
    x[50]     OBJ       88
    x[51]     c6        204
    x[51]     c7        431
    x[51]     c8        881
    x[51]     c9        253
    x[51]     c10       359
    x[51]     c1        340
    x[51]     c2        484
    x[51]     c3        944
    x[51]     c4        303
    x[51]     c5        251
    x[51]     OBJ       -306
    x[52]     c6        974
    x[52]     c7        771
    x[52]     c8        65
    x[52]     c9        505
    x[52]     c10       413
    x[52]     c1        794
    x[52]     c2        655
    x[52]     c3        499
    x[52]     c4        423
    x[52]     c5        385
    x[52]     OBJ       89
    x[53]     c6        952
    x[53]     c7        586
    x[53]     c8        718
    x[53]     c9        749
    x[53]     c10       856
    x[53]     c1        321
    x[53]     c2        662
    x[53]     c3        860
    x[53]     c4        257
    x[53]     c5        537
    x[53]     OBJ       -374
    x[54]     c6        509
    x[54]     c7        198
    x[54]     c8        816
    x[54]     c9        174
    x[54]     c10       881
    x[54]     c1        337
    x[54]     c2        662
    x[54]     c3        216
    x[54]     c4        348
    x[54]     c5        337
    x[54]     OBJ       -341
    x[55]     c6        805
    x[55]     c7        683
    x[55]     c8        571
    x[55]     c9        1
    x[55]     c10       426
    x[55]     c1        580
    x[55]     c2        995
    x[55]     c3        499
    x[55]     c4        915
    x[55]     c5        675
    x[55]     OBJ       182
    x[56]     c6        965
    x[56]     c7        985
    x[56]     c8        757
    x[56]     c9        65
    x[56]     c10       745
    x[56]     c1        920
    x[56]     c2        248
    x[56]     c3        695
    x[56]     c4        905
    x[56]     c5        787
    x[56]     OBJ       -437
    x[57]     c6        284
    x[57]     c7        681
    x[57]     c8        281
    x[57]     c9        604
    x[57]     c10       286
    x[57]     c1        425
    x[57]     c2        718
    x[57]     c3        231
    x[57]     c4        684
    x[57]     c5        970
    x[57]     OBJ       122
    x[58]     c6        978
    x[58]     c7        523
    x[58]     c8        697
    x[58]     c9        755
    x[58]     c10       221
    x[58]     c1        170
    x[58]     c2        321
    x[58]     c3        776
    x[58]     c4        562
    x[58]     c5        822
    x[58]     OBJ       5
    x[59]     c6        643
    x[59]     c7        639
    x[59]     c8        369
    x[59]     c9        467
    x[59]     c10       146
    x[59]     c1        955
    x[59]     c2        533
    x[59]     c3        121
    x[59]     c4        217
    x[59]     c5        528
    x[59]     OBJ       126
    x[60]     c6        851
    x[60]     c7        318
    x[60]     c8        709
    x[60]     c9        707
    x[60]     c10       770
    x[60]     c1        581
    x[60]     c2        391
    x[60]     c3        703
    x[60]     c4        471
    x[60]     c5        782
    x[60]     OBJ       114
    x[61]     c6        849
    x[61]     c7        873
    x[61]     c8        971
    x[61]     c9        472
    x[61]     c10       726
    x[61]     c1        739
    x[61]     c2        81
    x[61]     c3        876
    x[61]     c4        532
    x[61]     c5        29
    x[61]     OBJ       -484
    x[62]     c6        329
    x[62]     c7        697
    x[62]     c8        78
    x[62]     c9        222
    x[62]     c10       554
    x[62]     c1        622
    x[62]     c2        253
    x[62]     c3        260
    x[62]     c4        334
    x[62]     c5        81
    x[62]     OBJ       -430
    x[63]     c6        282
    x[63]     c7        854
    x[63]     c8        327
    x[63]     c9        25
    x[63]     c10       951
    x[63]     c1        473
    x[63]     c2        879
    x[63]     c3        938
    x[63]     c4        601
    x[63]     c5        430
    x[63]     OBJ       274
    x[64]     c6        510
    x[64]     c7        267
    x[64]     c8        576
    x[64]     c9        943
    x[64]     c10       942
    x[64]     c1        789
    x[64]     c2        540
    x[64]     c3        643
    x[64]     c4        729
    x[64]     c5        957
    x[64]     OBJ       268
    x[65]     c6        901
    x[65]     c7        340
    x[65]     c8        467
    x[65]     c9        582
    x[65]     c10       517
    x[65]     c1        946
    x[65]     c2        959
    x[65]     c3        746
    x[65]     c4        566
    x[65]     c5        599
    x[65]     OBJ       20
    x[66]     c6        855
    x[66]     c7        280
    x[66]     c8        995
    x[66]     c9        571
    x[66]     c10       842
    x[66]     c1        499
    x[66]     c2        118
    x[66]     c3        967
    x[66]     c4        886
    x[66]     c5        52
    x[66]     OBJ       -627
    x[67]     c6        521
    x[67]     c7        632
    x[67]     c8        756
    x[67]     c9        45
    x[67]     c10       89
    x[67]     c1        666
    x[67]     c2        989
    x[67]     c3        360
    x[67]     c4        824
    x[67]     c5        314
    x[67]     OBJ       183
    x[68]     c6        577
    x[68]     c7        977
    x[68]     c8        51
    x[68]     c9        474
    x[68]     c10       84
    x[68]     c1        546
    x[68]     c2        781
    x[68]     c3        630
    x[68]     c4        253
    x[68]     c5        180
    x[68]     OBJ       -410
    x[69]     c6        881
    x[69]     c7        593
    x[69]     c8        279
    x[69]     c9        154
    x[69]     c10       441
    x[69]     c1        630
    x[69]     c2        678
    x[69]     c3        46
    x[69]     c4        606
    x[69]     c5        877
    x[69]     OBJ       24
    x[70]     c6        291
    x[70]     c7        786
    x[70]     c8        618
    x[70]     c9        833
    x[70]     c10       868
    x[70]     c1        997
    x[70]     c2        787
    x[70]     c3        555
    x[70]     c4        618
    x[70]     c5        28
    x[70]     OBJ       -466
    x[71]     c6        598
    x[71]     c7        410
    x[71]     c8        358
    x[71]     c9        603
    x[71]     c10       510
    x[71]     c1        462
    x[71]     c2        424
    x[71]     c3        818
    x[71]     c4        418
    x[71]     c5        115
    x[71]     OBJ       93
    x[72]     c6        606
    x[72]     c7        526
    x[72]     c8        337
    x[72]     c9        538
    x[72]     c10       442
    x[72]     c1        750
    x[72]     c2        721
    x[72]     c3        52
    x[72]     c4        217
    x[72]     c5        483
    x[72]     OBJ       132
    x[73]     c6        800
    x[73]     c7        65
    x[73]     c8        54
    x[73]     c9        399
    x[73]     c10       119
    x[73]     c1        841
    x[73]     c2        623
    x[73]     c3        6
    x[73]     c4        153
    x[73]     c5        451
    x[73]     OBJ       256
    x[74]     c6        493
    x[74]     c7        479
    x[74]     c8        490
    x[74]     c9        31
    x[74]     c10       621
    x[74]     c1        795
    x[74]     c2        833
    x[74]     c3        331
    x[74]     c4        725
    x[74]     c5        434
    x[74]     OBJ       29
    x[75]     c6        964
    x[75]     c7        713
    x[75]     c8        127
    x[75]     c9        296
    x[75]     c10       31
    x[75]     c1        2
    x[75]     c2        986
    x[75]     c3        24
    x[75]     c4        701
    x[75]     c5        494
    x[75]     OBJ       35
    x[76]     c6        951
    x[76]     c7        569
    x[76]     c8        93
    x[76]     c9        762
    x[76]     c10       604
    x[76]     c1        522
    x[76]     c2        141
    x[76]     c3        328
    x[76]     c4        451
    x[76]     c5        849
    x[76]     OBJ       -495
    x[77]     c6        971
    x[77]     c7        154
    x[77]     c8        355
    x[77]     c9        728
    x[77]     c10       717
    x[77]     c1        778
    x[77]     c2        66
    x[77]     c3        749
    x[77]     c4        402
    x[77]     c5        212
    x[77]     OBJ       -443
    x[78]     c6        739
    x[78]     c7        852
    x[78]     c8        295
    x[78]     c9        575
    x[78]     c10       823
    x[78]     c1        42
    x[78]     c2        983
    x[78]     c3        206
    x[78]     c4        372
    x[78]     c5        520
    x[78]     OBJ       -398
    x[79]     c6        759
    x[79]     c7        916
    x[79]     c8        746
    x[79]     c9        169
    x[79]     c10       630
    x[79]     c1        714
    x[79]     c2        449
    x[79]     c3        906
    x[79]     c4        820
    x[79]     c5        178
    x[79]     OBJ       -502
    x[80]     c6        747
    x[80]     c7        661
    x[80]     c8        17
    x[80]     c9        459
    x[80]     c10       884
    x[80]     c1        645
    x[80]     c2        654
    x[80]     c3        346
    x[80]     c4        111
    x[80]     c5        354
    x[80]     OBJ       -285
    x[81]     c6        791
    x[81]     c7        230
    x[81]     c8        47
    x[81]     c9        145
    x[81]     c10       926
    x[81]     c1        855
    x[81]     c2        458
    x[81]     c3        104
    x[81]     c4        770
    x[81]     c5        251
    x[81]     OBJ       245
    x[82]     c6        839
    x[82]     c7        674
    x[82]     c8        416
    x[82]     c9        671
    x[82]     c10       381
    x[82]     c1        396
    x[82]     c2        675
    x[82]     c3        415
    x[82]     c4        205
    x[82]     c5        72
    x[82]     OBJ       -318
    x[83]     c6        203
    x[83]     c7        156
    x[83]     c8        156
    x[83]     c9        625
    x[83]     c10       560
    x[83]     c1        768
    x[83]     c2        515
    x[83]     c3        680
    x[83]     c4        698
    x[83]     c5        770
    x[83]     OBJ       176
    x[84]     c6        681
    x[84]     c7        703
    x[84]     c8        572
    x[84]     c9        574
    x[84]     c10       405
    x[84]     c1        392
    x[84]     c2        718
    x[84]     c3        187
    x[84]     c4        976
    x[84]     c5        806
    x[84]     OBJ       170
    x[85]     c6        729
    x[85]     c7        739
    x[85]     c8        771
    x[85]     c9        261
    x[85]     c10       441
    x[85]     c1        141
    x[85]     c2        486
    x[85]     c3        220
    x[85]     c4        370
    x[85]     c5        580
    x[85]     OBJ       -696
    x[86]     c6        682
    x[86]     c7        552
    x[86]     c8        11
    x[86]     c9        180
    x[86]     c10       891
    x[86]     c1        544
    x[86]     c2        881
    x[86]     c3        255
    x[86]     c4        449
    x[86]     c5        97
    x[86]     OBJ       -448
    x[87]     c6        952
    x[87]     c7        541
    x[87]     c8        426
    x[87]     c9        768
    x[87]     c10       338
    x[87]     c1        847
    x[87]     c2        726
    x[87]     c3        122
    x[87]     c4        378
    x[87]     c5        80
    x[87]     OBJ       21
    x[88]     c6        622
    x[88]     c7        752
    x[88]     c8        133
    x[88]     c9        827
    x[88]     c10       5
    x[88]     c1        263
    x[88]     c2        386
    x[88]     c3        51
    x[88]     c4        633
    x[88]     c5        821
    x[88]     OBJ       -458
    x[89]     c6        870
    x[89]     c7        225
    x[89]     c8        920
    x[89]     c9        926
    x[89]     c10       960
    x[89]     c1        325
    x[89]     c2        796
    x[89]     c3        231
    x[89]     c4        566
    x[89]     c5        379
    x[89]     OBJ       -659
    x[90]     c6        39
    x[90]     c7        128
    x[90]     c8        712
    x[90]     c9        925
    x[90]     c10       376
    x[90]     c1        227
    x[90]     c2        229
    x[90]     c3        536
    x[90]     c4        240
    x[90]     c5        635
    x[90]     OBJ       -543
    x[91]     c6        86
    x[91]     c7        449
    x[91]     c8        62
    x[91]     c9        75
    x[91]     c10       876
    x[91]     c1        765
    x[91]     c2        398
    x[91]     c3        897
    x[91]     c4        13
    x[91]     c5        508
    x[91]     OBJ       155
    x[92]     c6        798
    x[92]     c7        786
    x[92]     c8        874
    x[92]     c9        656
    x[92]     c10       77
    x[92]     c1        128
    x[92]     c2        335
    x[92]     c3        727
    x[92]     c4        689
    x[92]     c5        988
    x[92]     OBJ       215
    x[93]     c6        693
    x[93]     c7        798
    x[93]     c8        878
    x[93]     c9        190
    x[93]     c10       33
    x[93]     c1        10
    x[93]     c2        624
    x[93]     c3        782
    x[93]     c4        385
    x[93]     c5        748
    x[93]     OBJ       212
    x[94]     c6        39
    x[94]     c7        562
    x[94]     c8        920
    x[94]     c9        976
    x[94]     c10       360
    x[94]     c1        973
    x[94]     c2        283
    x[94]     c3        113
    x[94]     c4        319
    x[94]     c5        542
    x[94]     OBJ       -602
    x[95]     c6        632
    x[95]     c7        97
    x[95]     c8        249
    x[95]     c9        536
    x[95]     c10       520
    x[95]     c1        162
    x[95]     c2        182
    x[95]     c3        947
    x[95]     c4        341
    x[95]     c5        41
    x[95]     OBJ       -507
    x[96]     c6        900
    x[96]     c7        58
    x[96]     c8        511
    x[96]     c9        267
    x[96]     c10       74
    x[96]     c1        743
    x[96]     c2        589
    x[96]     c3        206
    x[96]     c4        863
    x[96]     c5        451
    x[96]     OBJ       125
    x[97]     c6        729
    x[97]     c7        218
    x[97]     c8        255
    x[97]     c9        993
    x[97]     c10       367
    x[97]     c1        208
    x[97]     c2        153
    x[97]     c3        566
    x[97]     c4        462
    x[97]     c5        87
    x[97]     OBJ       -450
    x[98]     c6        192
    x[98]     c7        706
    x[98]     c8        539
    x[98]     c9        471
    x[98]     c10       636
    x[98]     c1        223
    x[98]     c2        945
    x[98]     c3        738
    x[98]     c4        630
    x[98]     c5        107
    x[98]     OBJ       -352
    x[99]     c6        970
    x[99]     c7        363
    x[99]     c8        639
    x[99]     c9        446
    x[99]     c10       954
    x[99]     c1        981
    x[99]     c2        272
    x[99]     c3        733
    x[99]     c4        91
    x[99]     c5        658
    x[99]     OBJ       17
    x[100]    c6        346
    x[100]    c7        705
    x[100]    c8        567
    x[100]    c9        470
    x[100]    c10       225
    x[100]    c1        143
    x[100]    c2        849
    x[100]    c3        891
    x[100]    c4        525
    x[100]    c5        636
    x[100]    OBJ       117
RHS
    rhs       c6        42813
    rhs       c7        36845
    rhs       c8        36146
    rhs       c9        37149
    rhs       c10       39151
    rhs       c1        39485
    rhs       c2        40164
    rhs       c3        37292
    rhs       c4        36928
    rhs       c5        32846
RANGES
BOUNDS
 LO bounds    ss[1]     0
 PL bounds    ss[1]
 LO bounds    ss[2]     0
 PL bounds    ss[2]
 LO bounds    ss[3]     0
 PL bounds    ss[3]
 LO bounds    ss[4]     0
 PL bounds    ss[4]
 LO bounds    ss[5]     0
 PL bounds    ss[5]
 MI bounds    s[1]
 UP bounds    s[1]      0
 MI bounds    s[2]
 UP bounds    s[2]      0
 MI bounds    s[3]
 UP bounds    s[3]      0
 MI bounds    s[4]
 UP bounds    s[4]      0
 MI bounds    s[5]
 UP bounds    s[5]      0
 BV bounds    x[1]
 BV bounds    x[2]
 BV bounds    x[3]
 BV bounds    x[4]
 BV bounds    x[5]
 BV bounds    x[6]
 BV bounds    x[7]
 BV bounds    x[8]
 BV bounds    x[9]
 BV bounds    x[10]
 BV bounds    x[11]
 BV bounds    x[12]
 BV bounds    x[13]
 BV bounds    x[14]
 BV bounds    x[15]
 BV bounds    x[16]
 BV bounds    x[17]
 BV bounds    x[18]
 BV bounds    x[19]
 BV bounds    x[20]
 BV bounds    x[21]
 BV bounds    x[22]
 BV bounds    x[23]
 BV bounds    x[24]
 BV bounds    x[25]
 BV bounds    x[26]
 BV bounds    x[27]
 BV bounds    x[28]
 BV bounds    x[29]
 BV bounds    x[30]
 BV bounds    x[31]
 BV bounds    x[32]
 BV bounds    x[33]
 BV bounds    x[34]
 BV bounds    x[35]
 BV bounds    x[36]
 BV bounds    x[37]
 BV bounds    x[38]
 BV bounds    x[39]
 BV bounds    x[40]
 BV bounds    x[41]
 BV bounds    x[42]
 BV bounds    x[43]
 BV bounds    x[44]
 BV bounds    x[45]
 BV bounds    x[46]
 BV bounds    x[47]
 BV bounds    x[48]
 BV bounds    x[49]
 BV bounds    x[50]
 BV bounds    x[51]
 BV bounds    x[52]
 BV bounds    x[53]
 BV bounds    x[54]
 BV bounds    x[55]
 BV bounds    x[56]
 BV bounds    x[57]
 BV bounds    x[58]
 BV bounds    x[59]
 BV bounds    x[60]
 BV bounds    x[61]
 BV bounds    x[62]
 BV bounds    x[63]
 BV bounds    x[64]
 BV bounds    x[65]
 BV bounds    x[66]
 BV bounds    x[67]
 BV bounds    x[68]
 BV bounds    x[69]
 BV bounds    x[70]
 BV bounds    x[71]
 BV bounds    x[72]
 BV bounds    x[73]
 BV bounds    x[74]
 BV bounds    x[75]
 BV bounds    x[76]
 BV bounds    x[77]
 BV bounds    x[78]
 BV bounds    x[79]
 BV bounds    x[80]
 BV bounds    x[81]
 BV bounds    x[82]
 BV bounds    x[83]
 BV bounds    x[84]
 BV bounds    x[85]
 BV bounds    x[86]
 BV bounds    x[87]
 BV bounds    x[88]
 BV bounds    x[89]
 BV bounds    x[90]
 BV bounds    x[91]
 BV bounds    x[92]
 BV bounds    x[93]
 BV bounds    x[94]
 BV bounds    x[95]
 BV bounds    x[96]
 BV bounds    x[97]
 BV bounds    x[98]
 BV bounds    x[99]
 BV bounds    x[100]
ENDATA
